
Gurobi 9.5.0 (linux64) logging started Tue Nov  7 13:31:29 2023

Set parameter LogFile to value "/lustre1/scratch/348/vsc34888/JointResearch/05.Models/06.Benchmarking/E.Representative_days_based_on_Line_Benefits_OptModel/9n_ByStages_nc60/openStarNet_9n_ByStages_nc60.log"
Set parameter Method to value 2
Set parameter MIPFocus to value 1
Set parameter Presolve to value 2
Set parameter RINS to value 100
Set parameter MIPGap to value 0.01
Set parameter Threads to value 36
Set parameter TimeLimit to value 604800
Set parameter IterationLimit to value 760000000
Gurobi Optimizer version 9.5.0 build v9.5.0rc5 (linux64)
Thread count: 36 physical cores, 36 logical processors, using up to 36 threads
Optimize a model with 15723 rows, 8325 columns and 48943 nonzeros
Model fingerprint: 0x93be4f73
Variable types: 8289 continuous, 36 integer (36 binary)
Coefficient statistics:
  Matrix range     [8e-04, 2e+03]
  Objective range  [1e+00, 1e+00]
  Bounds range     [4e-04, 2e+00]
  RHS range        [4e-04, 1e+00]
Presolve removed 5103 rows and 2584 columns
Presolve time: 0.07s
Presolved: 10620 rows, 5741 columns, 37565 nonzeros
Variable types: 5705 continuous, 36 integer (36 binary)
Found heuristic solution: objective 849.3988695
Root relaxation presolved: 10620 rows, 5741 columns, 37565 nonzeros

Root barrier log...

Ordering time: 0.00s

Barrier statistics:
 Dense cols : 36
 AA' NZ     : 1.429e+05
 Factor NZ  : 2.914e+05 (roughly 9 MB of memory)
 Factor Ops : 1.218e+07 (less than 1 second per iteration)
 Threads    : 36

                  Objective                Residual
Iter       Primal          Dual         Primal    Dual     Compl     Time
   0   3.60915615e+05 -6.32583001e+07  6.14e+00 5.32e+02  8.99e+03     0s
   1   4.94161386e+04 -1.78194125e+07  6.71e-01 1.69e-09  1.16e+03     0s
   2   1.49709506e+04 -2.35549097e+06  7.86e-03 6.29e-10  1.15e+02     0s
   3   7.97753965e+03 -4.19431497e+04  4.25e-13 2.15e-11  2.40e+00     0s
   4   9.20897624e+02 -1.11214881e+04  4.85e-13 5.08e-12  5.78e-01     0s
   5   6.06265433e+02 -3.64215361e+03  3.79e-13 3.64e-12  2.04e-01     0s
   6   4.48899184e+02 -1.43620655e+03  3.16e-13 1.82e-12  9.05e-02     0s
   7   3.12411212e+02 -8.53233411e+02  1.73e-13 1.82e-12  5.59e-02     0s
   8   1.97900397e+02 -2.61632260e+02  2.46e-13 1.82e-12  2.21e-02     0s
   9   1.22346161e+02  1.33374923e+01  2.31e-13 1.82e-12  5.23e-03     0s
  10   9.94689659e+01  6.20723583e+01  1.09e-12 1.82e-12  1.79e-03     0s
  11   9.49321825e+01  7.60599396e+01  7.04e-13 9.09e-13  9.06e-04     0s
  12   9.15847020e+01  7.92512270e+01  1.33e-12 9.09e-13  5.92e-04     0s
  13   8.96405789e+01  8.55894477e+01  1.65e-12 1.82e-12  1.94e-04     0s
  14   8.85858956e+01  8.75286413e+01  1.99e-12 1.82e-12  5.07e-05     0s
  15   8.84612208e+01  8.84383166e+01  7.33e-12 1.82e-12  1.10e-06     0s
  16   8.84573351e+01  8.84572239e+01  6.84e-09 3.64e-12  5.35e-09     0s
  17   8.84572696e+01  8.84572691e+01  8.23e-10 1.82e-12  2.26e-11     0s

Barrier solved model in 17 iterations and 0.34 seconds (0.27 work units)
Optimal objective 8.84572696e+01


Root relaxation: objective 8.845727e+01, 511 iterations, 0.24 seconds (0.12 work units)

    Nodes    |    Current Node    |     Objective Bounds      |     Work
 Expl Unexpl |  Obj  Depth IntInf | Incumbent    BestBd   Gap | It/Node Time

     0     0   88.45727    0    6  849.39887   88.45727  89.6%     -    0s
H    0     0                     742.4530649   88.45727  88.1%     -    0s
H    0     0                      97.2375432   96.36207  0.90%     -    0s
     0     0   96.36207    0    1   97.23754   96.36207  0.90%     -    0s

Cutting planes:
  MIR: 184

Explored 1 nodes (770 simplex iterations) in 0.51 seconds (0.38 work units)
Thread count was 36 (of 36 available processors)

Solution count 3: 97.2375 742.453 849.399 

Optimal solution found (tolerance 1.00e-02)
Best objective 9.723754322531e+01, best bound 9.636207250807e+01, gap 0.9003%

Gurobi 9.5.0 (linux64) logging started Tue Nov  7 13:31:31 2023

Set parameter LogFile to value "/lustre1/scratch/348/vsc34888/JointResearch/05.Models/06.Benchmarking/E.Representative_days_based_on_Line_Benefits_OptModel/9n_ByStages_nc60/openStarNet_9n_ByStages_nc60.log"
Set parameter Method to value 2
Set parameter MIPFocus to value 1
Set parameter Presolve to value 2
Set parameter RINS to value 100
Set parameter MIPGap to value 0.01
Set parameter Threads to value 36
Set parameter TimeLimit to value 604800
Set parameter IterationLimit to value 760000000
No parameters matching 'relax_integrality' found
Gurobi Optimizer version 9.5.0 build v9.5.0rc5 (linux64)
Thread count: 36 physical cores, 36 logical processors, using up to 36 threads
Optimize a model with 15723 rows, 8289 columns and 40267 nonzeros
Model fingerprint: 0x265ee2c2
Coefficient statistics:
  Matrix range     [8e-04, 2e+03]
  Objective range  [1e+00, 1e+00]
  Bounds range     [4e-04, 2e+00]
  RHS range        [4e-04, 2e+01]
Presolve removed 13563 rows and 4564 columns
Presolve time: 0.01s
Presolved: 2160 rows, 3725 columns, 8225 nonzeros

Ordering time: 0.00s

Barrier statistics:
 AA' NZ     : 6.060e+03
 Factor NZ  : 2.220e+04 (roughly 3 MB of memory)
 Factor Ops : 2.735e+05 (less than 1 second per iteration)
 Threads    : 1

                  Objective                Residual
Iter       Primal          Dual         Primal    Dual     Compl     Time
   0   4.04484294e+05 -3.71095229e+07  4.05e+00 1.82e-12  1.07e+04     0s
   1   5.99394947e+04 -7.30457026e+06  4.28e-01 9.66e-12  1.27e+03     0s
   2   1.77744919e+04 -1.15572218e+06  1.69e-02 6.37e-12  1.48e+02     0s
   3   8.78718481e+03 -4.63118299e+04  2.66e-14 5.46e-12  6.74e+00     0s
   4   1.32693182e+03 -8.69223146e+03  1.39e-13 3.64e-12  1.23e+00     0s
   5   6.95520616e+02 -2.16504568e+03  8.17e-14 9.09e-13  3.50e-01     0s
   6   3.65267267e+02 -5.31370588e+02  6.13e-14 9.09e-13  1.10e-01     0s
   7   2.15463530e+02 -1.97753710e+02  1.07e-13 1.82e-12  5.06e-02     0s
   8   1.36512188e+02 -1.50506647e+00  1.29e-13 1.82e-12  1.69e-02     0s
   9   1.12994385e+02  6.73144500e+01  1.83e-13 1.82e-12  5.59e-03     0s
  10   1.02991615e+02  8.38496848e+01  2.34e-13 1.82e-12  2.34e-03     0s
  11   9.86083512e+01  9.12623711e+01  8.38e-13 9.09e-13  8.99e-04     0s
  12   9.78055894e+01  9.51281410e+01  1.67e-12 1.82e-12  3.28e-04     0s
  13   9.72832432e+01  9.70997667e+01  8.63e-13 1.82e-12  2.25e-05     0s
  14   9.72376217e+01  9.72373793e+01  2.85e-12 1.82e-12  2.97e-08     0s
  15   9.72375433e+01  9.72375431e+01  5.64e-13 1.82e-12  2.97e-11     0s

Barrier solved model in 15 iterations and 0.04 seconds (0.03 work units)
Optimal objective 9.72375433e+01

Crossover log...

     696 DPushes remaining with DInf 0.0000000e+00                 0s
       0 DPushes remaining with DInf 0.0000000e+00                 0s

      68 PPushes remaining with PInf 0.0000000e+00                 0s
       0 PPushes remaining with PInf 0.0000000e+00                 0s

  Push phase complete: Pinf 0.0000000e+00, Dinf 7.2667566e-14      0s

Iteration    Objective       Primal Inf.    Dual Inf.      Time
     155    9.7237543e+01   0.000000e+00   0.000000e+00      0s

Solved in 155 iterations and 0.05 seconds (0.04 work units)
Optimal objective  9.723754323e+01
